61
100
80	5
79	7
78	11
77	10
76	7
75	4
74	11
73	5
72	4
71	9
70	5
69	11
68	8
67	12
66	11
65	7
64	5
63	8
62	10
61	11
60	7
59	8
58	6
57	4
56	13
55	8
54	7
53	15
52	8
51	9
50	12
49	6
48	8
47	8
46	7
45	6
44	11
43	10
42	8
41	10
40	7
39	8
38	8
37	7
36	7
35	10
34	10
33	6
32	6
31	7
30	6
29	5
28	9
27	10
26	12
25	9
24	8
23	9
22	9
21	7
20	8
